data;
set WEIGHTS := x0 x1 x2 x3 x4 x5 x6 x7 x8 x9 x10 x11 x12 x13 x14 x15 x16 x17 x18 x19 x20 x21;
param:  cost :=
  x0  372
  x1  287
  x2  370
  x3  156
  x4  680
  x5  703
  x6  388
  x7  217
  x8  572
  x9  461
  x10  836
  x11  117
  x12  311
  x13  253
  x14  548
  x15  539
  x16  492
  x17  188
  x18  142
  x19  235
  x20  813
  x21  256;
param cap := 5501;